c b=2,c=809
p cnf 14 26
2 -4 0
2 -7 0
2 -9 0
1 2 -12 0
2 -13 0
-2 4 0
-2 7 0
-2 9 0
1 -2 12 0
1 -2 13 0
1 -3 0
1 -6 0
1 -8 0
1 -11 0
1 -14 0
-1 2 12 0
2 -14 0
-1 -2 -12 0
-1 -2 14 0
-1 3 0
-1 6 0
-1 8 0
-1 11 0
-1 -13 0
-5 0
-10 0
